Log-file from 'building' test run over models/tllverifybench/tllBench_n=2_N=M=16_m=1_instance_1_0.onnx. 
 
ONNXGurobi Build time: 0.8296 seconds 
ONNXGurobi Memory: 10.70      MByte 
Presolve call: 0.1803 seconds 


Set parameter Username
Set parameter LicenseID to value 2734490
Academic license - for non-commercial use only - expires 2026-11-07
Gurobi Optimizer version 12.0.3 build v12.0.3rc0 (win64 - Windows 11+.0 (26200.2))

CPU model: AMD Ryzen 7 5700X 8-Core Processor, instruction set [SSE2|AVX|AVX2]
Thread count: 8 physical cores, 16 logical processors, using up to 16 threads

Presolve a model with 6188 rows, 8231 columns and 15978 nonzeros
Model fingerprint: 0x8b240162
Model has 2040 simple general constraints
  2040 MAX
Variable types: 8231 continuous, 0 integer (0 binary)
Coefficient statistics:
  Matrix range     [3e-03, 2e+00]
  Objective range  [0e+00, 0e+00]
  Bounds range     [1e+00, 1e+00]
  RHS range        [4e-03, 2e+00]
Presolve removed 3744 rows and 5368 columns
Presolve time: 0.18s
ONNXGurobi Build time: 0.8296 Seconds
ONNXGurobi Memory: 10.70      MByte

Process finished with exit code 0